c width = 5, time = 0.105243
s td 8 6 18
b 1 10 12 15 16 17 18
b 2 1 7 10 12 15 18
b 3 1 2 7 10 11 12
b 4 1 5 7 8 15 18
b 5 3 4 5 8 15 18
b 6 5 6 7 18
b 7 1 5 8 9
b 8 1 10 12 13 14 15
2 3
4 5
4 6
4 7
2 4
2 8
1 2
